; PUSH 0x00 NOT PUSH cw_3 AND => PUSH cw_3
(set-option :produce-proofs true)
; 
(set-info :status unknown)
(declare-fun storage_t ((_ BitVec 256) Int (_ BitVec 256)) (_ BitVec 256))
(declare-fun w_3 () (_ BitVec 256))
(declare-fun storage_s ((_ BitVec 256) Int (_ BitVec 256)) (_ BitVec 256))
(declare-fun exc_halt_t (Int) Bool)
(declare-fun exc_halt_s (Int) Bool)
(declare-fun sc_t (Int) (_ BitVec 6))
(declare-fun stack_t ((_ BitVec 256) Int (_ BitVec 6)) (_ BitVec 256))
(declare-fun stack_s ((_ BitVec 256) Int (_ BitVec 6)) (_ BitVec 256))
(declare-fun sc_s (Int) (_ BitVec 6))
(declare-fun used_gas_t ((_ BitVec 256) Int) Int)
(declare-fun used_gas_s ((_ BitVec 256) Int) Int)
(assert
 (let (($x1515 (forall ((w (_ BitVec 256)) )(let ((?x3426 (storage_t w_3 1 w)))
 (let ((?x1238 (storage_s w_3 4 w)))
 (= ?x1238 ?x3426))))
 ))
 (let (($x3508 (exc_halt_t 1)))
 (let (($x7172 (exc_halt_s 4)))
 (let (($x4923 (= $x7172 $x3508)))
 (let (($x4309 (forall ((n (_ BitVec 6)) )(let ((?x2254 (stack_t w_3 1 n)))
 (let ((?x8472 (stack_s w_3 4 n)))
 (let (($x9911 (= ?x8472 ?x2254)))
 (or $x9911 (bvsle (sc_t 1) n))))))
 ))
 (let ((?x8347 (sc_t 1)))
 (let ((?x4305 (sc_s 4)))
 (let (($x9098 (= ?x4305 ?x8347)))
 (let ((?x3429 (used_gas_t w_3 0)))
 (let ((?x6378 (used_gas_s w_3 0)))
 (let (($x695 (= ?x6378 ?x3429)))
 (let (($x8003 (forall ((w (_ BitVec 256)) )(let ((?x9707 (storage_t w_3 0 w)))
 (let ((?x8608 (storage_s w_3 0 w)))
 (= ?x8608 ?x9707))))
 ))
 (let (($x56 (exc_halt_t 0)))
 (let (($x57 (exc_halt_s 0)))
 (let (($x58 (= $x57 $x56)))
 (let (($x4949 (forall ((n (_ BitVec 6)) )(let ((?x6208 (stack_t w_3 0 n)))
 (let ((?x9506 (stack_s w_3 0 n)))
 (let (($x9455 (= ?x9506 ?x6208)))
 (let ((?x63 (sc_t 0)))
 (let (($x4790 (bvsle ?x63 n)))
 (or $x4790 $x9455)))))))
 ))
 (let ((?x63 (sc_t 0)))
 (let ((?x72 (sc_s 0)))
 (let (($x73 (= ?x72 ?x63)))
 (let (($x2506 (= $x3508 (or $x56 (not (= ((_ extract 6 6) (bvadd (_ bv1 7) (concat (_ bv0 1) ?x63))) (_ bv0 1)))))))
 (let (($x2710 (forall ((w (_ BitVec 256)) )(let ((?x9707 (storage_t w_3 0 w)))
 (let ((?x3426 (storage_t w_3 1 w)))
 (= ?x3426 ?x9707))))
 ))
 (let (($x4495 (forall ((n (_ BitVec 6)) )(let ((?x63 (sc_t 0)))
 (let (($x4790 (bvsle ?x63 n)))
 (or (= (stack_t w_3 1 n) (stack_t w_3 0 n)) $x4790))))
 ))
 (let (($x7449 (= ?x8347 (bvadd (_ bv1 6) ?x63))))
 (let (($x3674 (= $x7172 (or (exc_halt_s 3) (not (bvsle (_ bv0 6) (bvadd (_ bv62 6) (sc_s 3))))))))
 (let (($x6316 (forall ((w (_ BitVec 256)) )(let ((?x9415 (storage_s w_3 3 w)))
 (let ((?x1238 (storage_s w_3 4 w)))
 (= ?x1238 ?x9415))))
 ))
 (let (($x8462 (forall ((n (_ BitVec 6)) )(let ((?x275 (sc_s 3)))
 (let ((?x10426 (bvadd (_ bv62 6) ?x275)))
 (let (($x5065 (bvsle ?x10426 n)))
 (or (= (stack_s w_3 4 n) (stack_s w_3 3 n)) $x5065)))))
 ))
 (let ((?x11239 (bvor (bvnot (stack_s w_3 3 (bvadd (_ bv63 6) (sc_s 3)))) (bvnot (stack_s w_3 3 (bvadd (_ bv62 6) (sc_s 3)))))))
 (let (($x247 (exc_halt_s 2)))
 (let (($x10424 (or $x247 (not (= ((_ extract 6 6) (bvadd (_ bv1 7) (concat (_ bv0 1) (sc_s 2)))) (_ bv0 1))))))
 (let (($x292 (exc_halt_s 3)))
 (let (($x7311 (forall ((w (_ BitVec 256)) )(let ((?x7964 (storage_s w_3 2 w)))
 (let ((?x9415 (storage_s w_3 3 w)))
 (= ?x9415 ?x7964))))
 ))
 (let (($x6656 (forall ((n (_ BitVec 6)) )(or (= (stack_s w_3 3 n) (stack_s w_3 2 n)) (bvsle (sc_s 2) n)))
 ))
 (let (($x5502 (= $x247 (or (exc_halt_s 1) (not (bvsle (_ bv0 6) (bvadd (_ bv63 6) (sc_s 1))))))))
 (let (($x5078 (forall ((w (_ BitVec 256)) )(let ((?x2839 (storage_s w_3 1 w)))
 (let ((?x7964 (storage_s w_3 2 w)))
 (= ?x7964 ?x2839))))
 ))
 (let (($x2825 (forall ((n (_ BitVec 6)) )(or (= (stack_s w_3 2 n) (stack_s w_3 1 n)) (bvsle (bvadd (_ bv63 6) (sc_s 1)) n)))
 ))
 (let (($x3102 (= (stack_s w_3 2 (bvadd (_ bv63 6) (sc_s 2))) (bvnot (stack_s w_3 1 (bvadd (_ bv63 6) (sc_s 1)))))))
 (let (($x189 (exc_halt_s 1)))
 (let (($x3774 (= $x189 (or $x57 (not (= ((_ extract 6 6) (bvadd (_ bv1 7) (concat (_ bv0 1) ?x72))) (_ bv0 1)))))))
 (let (($x11199 (forall ((w (_ BitVec 256)) )(let ((?x8608 (storage_s w_3 0 w)))
 (let ((?x2839 (storage_s w_3 1 w)))
 (= ?x2839 ?x8608))))
 ))
 (let (($x7039 (forall ((n (_ BitVec 6)) )(let ((?x72 (sc_s 0)))
 (let (($x6179 (bvsle ?x72 n)))
 (or (= (stack_s w_3 1 n) (stack_s w_3 0 n)) $x6179))))
 ))
 (let ((?x154 (sc_s 1)))
 (let (($x11645 (= ?x154 (bvadd (_ bv1 6) ?x72))))
 (let (($x10013 (forall ((w (_ BitVec 256)) )(let ((?x8608 (storage_s w_3 0 w)))
 (= ?x8608 (_ bv0 256))))
 ))
 (let (($x2113 (= ?x6378 0)))
 (let (($x11450 (not $x57)))
 (let (($x208 (= ?x72 (_ bv0 6))))
 (and $x208 $x11450 $x2113 $x10013 (= (stack_s w_3 1 ?x72) (_ bv0 256)) (= (used_gas_s w_3 1) (+ 3 ?x6378)) $x11645 $x7039 $x11199 $x3774 $x3102 (= (used_gas_s w_3 2) (+ 3 (used_gas_s w_3 1))) (= (sc_s 2) ?x154) $x2825 $x5078 $x5502 (= (stack_s w_3 3 (sc_s 2)) w_3) (= (used_gas_s w_3 3) (+ 3 (used_gas_s w_3 2))) (= (sc_s 3) (bvadd (_ bv1 6) (sc_s 2))) $x6656 $x7311 (= $x292 $x10424) (= (stack_s w_3 4 (bvadd (_ bv63 6) ?x4305)) (bvnot ?x11239)) (= (used_gas_s w_3 4) (+ 3 (used_gas_s w_3 3))) (= ?x4305 (bvadd (_ bv63 6) (sc_s 3))) $x8462 $x6316 $x3674 (= (stack_t w_3 1 ?x63) w_3) (= (used_gas_t w_3 1) (+ 3 ?x3429)) $x7449 $x4495 $x2710 $x2506 $x73 $x4949 $x58 $x8003 $x695 (not (and $x9098 $x4309 $x4923 $x1515))))))))))))))))))))))))))))))))))))))))))))))))))
(check-sat)
(get-proof)
